c Checking s8 equivalent ripple-carry and carry-select adders
p cnf 22 55
-1 2 3 0
-2 1 0
-3 1 0

-2 4 0
-2 -5 0
-4 5 2 0

-3 -4 0
-3 5 0
4 -5 3 0

-4 6 7 0
-6 4 0
-7 4 0

-6 8 0
-6 -9 0
-8 9 6 0

-7 -8 0
-7 9 0
8 -9 7 0

-8 10 11 0
-10 8 0
-11 8 0

-10 12 0
-10 -13 0
-12 13 10 0

-11 -12 0
-11 13 0
12 -13 11

-5 14 15 0
-14 5 0
-15 5 0

-14 16 0
-14 -9 0
-16 9 14 0

-15 17 0
-15 9 0
-17 -9 15 0

-16 18 19 0
-18 16 0
-19 16 0

-18 12 0
-18 -13 0
-12 13 18 0

-19 -12 0
-19 13 0
12 -13 19 0

-17 -20 0

-20 21 22 0
-21 20 0
-22 20 0

-21 12 0
-21 -13 0
-12 13 21 0

-22 -12 0
-22 13 0
12 -13 22 0


